(set-logic QF_UF)
(declare-fun A0 () Bool)
(declare-fun A1 () Bool)
(declare-fun A2 () Bool)
(declare-fun A3 () Bool)
(declare-fun A4 () Bool)
(declare-fun A5 () Bool)
(declare-fun A7 () Bool)
(declare-fun A8 () Bool)
(declare-fun A9 () Bool)
(declare-fun A10 () Bool)
(declare-fun A12 () Bool)
(declare-fun A13 () Bool)
(declare-fun A14 () Bool)
(declare-fun A15 () Bool)
(declare-fun A16 () Bool)
(declare-fun A17 () Bool)
(declare-fun A18 () Bool)
(declare-fun A19 () Bool)
(declare-fun A20 () Bool)
(declare-fun A21 () Bool)
(declare-fun A22 () Bool)
(declare-fun A23 () Bool)
(declare-fun A24 () Bool)
(assert (let ((.def_0 (and A7 A9))) (let ((.def_1 (not .def_0))) (let ((.def_2 (not A20))) (let ((.def_3 (or .def_2 A12))) (let ((.def_4 (not .def_3))) (let ((.def_5 (and .def_4 .def_1))) (let ((.def_6 (not A14))) (let ((.def_7 (not A17))) (let ((.def_8 (or .def_7 .def_6))) (let ((.def_9 (not A3))) (let ((.def_10 (= A7 .def_9))) (let ((.def_11 (or .def_10 .def_8))) (let ((.def_12 (not .def_11))) (let ((.def_13 (and .def_12 .def_5))) (let ((.def_14 (not A18))) (let ((.def_15 (not A10))) (let ((.def_16 (and .def_15 .def_14))) (let ((.def_17 (or A2 A23))) (let ((.def_18 (not .def_17))) (let ((.def_19 (or .def_18 .def_16))) (let ((.def_20 (not .def_19))) (let ((.def_21 (not A13))) (let ((.def_22 (not A12))) (let ((.def_23 (and .def_22 .def_21))) (let ((.def_24 (or A17 .def_9))) (let ((.def_25 (= .def_24 .def_23))) (let ((.def_26 (and .def_25 .def_20))) (let ((.def_27 (and .def_26 .def_13))) (let ((.def_28 (not .def_27))) (let ((.def_29 (not A1))) (let ((.def_30 (and A0 .def_29))) (let ((.def_31 (not .def_30))) (let ((.def_32 (and .def_2 A14))) (let ((.def_33 (and .def_32 .def_31))) (let ((.def_34 (not .def_33))) (let ((.def_35 (or .def_15 .def_29))) (let ((.def_36 (not .def_35))) (let ((.def_37 (not A19))) (let ((.def_38 (and .def_2 .def_37))) (let ((.def_39 (or .def_38 .def_36))) (let ((.def_40 (not .def_39))) (let ((.def_41 (and .def_40 .def_34))) (let ((.def_42 (not .def_41))) (let ((.def_43 (or A15 A8))) (let ((.def_44 (and A13 A1))) (let ((.def_45 (not .def_44))) (let ((.def_46 (or .def_45 .def_43))) (let ((.def_47 (not .def_46))) (let ((.def_48 (and .def_7 A3))) (let ((.def_49 (and A20 A14))) (let ((.def_50 (not .def_49))) (let ((.def_51 (or .def_50 .def_48))) (let ((.def_52 (or .def_51 .def_47))) (let ((.def_53 (or .def_52 .def_42))) (let ((.def_54 (and .def_53 .def_28))) (let ((.def_55 (and A24 A10))) (let ((.def_56 (not .def_55))) (let ((.def_57 (and .def_37 A4))) (let ((.def_58 (and .def_57 .def_56))) (let ((.def_59 (and .def_6 A14))) (let ((.def_60 (not A15))) (let ((.def_61 (not A16))) (let ((.def_62 (and .def_61 .def_60))) (let ((.def_63 (or .def_62 .def_59))) (let ((.def_64 (not .def_63))) (let ((.def_65 (or .def_64 .def_58))) (let ((.def_66 (not .def_65))) (let ((.def_67 (and .def_61 A2))) (let ((.def_68 (not .def_67))) (let ((.def_69 (not A5))) (let ((.def_70 (not A21))) (let ((.def_71 (and .def_70 .def_69))) (let ((.def_72 (and .def_71 .def_68))) (let ((.def_73 (not A7))) (let ((.def_74 (and .def_73 A22))) (let ((.def_75 (not .def_74))) (let ((.def_76 (= A9 A5))) (let ((.def_77 (or .def_76 .def_75))) (let ((.def_78 (or .def_77 .def_72))) (let ((.def_79 (or .def_78 .def_66))) (let ((.def_80 (not .def_79))) (let ((.def_81 (not A9))) (let ((.def_82 (and .def_81 A20))) (let ((.def_83 (= A3 .def_81))) (let ((.def_84 (or .def_83 .def_82))) (let ((.def_85 (not .def_84))) (let ((.def_86 (and .def_7 A14))) (let ((.def_87 (not .def_86))) (let ((.def_88 (or .def_22 .def_6))) (let ((.def_89 (not .def_88))) (let ((.def_90 (and .def_89 .def_87))) (let ((.def_91 (not .def_90))) (let ((.def_92 (or .def_91 .def_85))) (let ((.def_93 (not .def_92))) (let ((.def_94 (not A0))) (let ((.def_95 (and A16 .def_94))) (let ((.def_96 (not .def_95))) (let ((.def_97 (or .def_61 A22))) (let ((.def_98 (not .def_97))) (let ((.def_99 (and .def_98 .def_96))) (let ((.def_100 (not .def_99))) (let ((.def_101 (and A12 .def_60))) (let ((.def_102 (and A13 .def_94))) (let ((.def_103 (or .def_102 .def_101))) (let ((.def_104 (and .def_103 .def_100))) (let ((.def_105 (or .def_104 .def_93))) (let ((.def_106 (and .def_105 .def_80))) (let ((.def_107 (or .def_106 .def_54))) (let ((.def_108 (not .def_107))) .def_108))))))))))))))))))))))))))))))))))))))))))))))))))))))))))))))))))))))))))))))))))))))))))))))))))))))))))))))
(check-sat)
